NAME: line_100_0
TYPE: TSP
COMMENT: line_100_0
DIMENSION: 100
EDGE_WEIGHT_TYPE: EUC_2D
NODE_COORD_SECTION
1 0.0 865.0
2 0.0 700.0
3 0.0 578.0
4 0.0 986.0
5 0.0 899.0
6 0.0 389.0
7 0.0 732.0
8 0.0 275.0
9 0.0 4.0
10 0.0 881.0
11 0.0 25.0
12 0.0 465.0
13 0.0 125.0
14 0.0 212.0
15 0.0 368.0
16 0.0 66.0
17 0.0 47.0
18 0.0 787.0
19 0.0 813.0
20 0.0 473.0
21 0.0 0.0
22 0.0 320.0
23 0.0 857.0
24 0.0 699.0
25 0.0 42.0
26 0.0 688.0
27 0.0 661.0
28 0.0 870.0
29 0.0 231.0
30 0.0 670.0
31 0.0 469.0
32 0.0 60.0
33 0.0 421.0
34 0.0 339.0
35 0.0 719.0
36 0.0 253.0
37 0.0 599.0
38 0.0 18.0
39 0.0 590.0
40 0.0 979.0
41 0.0 285.0
42 0.0 952.0
43 0.0 48.0
44 0.0 961.0
45 0.0 323.0
46 0.0 431.0
47 0.0 666.0
48 0.0 771.0
49 0.0 575.0
50 0.0 184.0
51 0.0 586.0
52 0.0 984.0
53 0.0 732.0
54 0.0 444.0
55 0.0 827.0
56 0.0 396.0
57 0.0 910.0
58 0.0 537.0
59 0.0 875.0
60 0.0 337.0
61 0.0 29.0
62 0.0 8.0
63 0.0 104.0
64 0.0 642.0
65 0.0 627.0
66 0.0 510.0
67 0.0 409.0
68 0.0 926.0
69 0.0 970.0
70 0.0 883.0
71 0.0 278.0
72 0.0 953.0
73 0.0 18.0
74 0.0 480.0
75 0.0 323.0
76 0.0 250.0
77 0.0 714.0
78 0.0 115.0
79 0.0 920.0
80 0.0 830.0
81 0.0 356.0
82 0.0 721.0
83 0.0 689.0
84 0.0 89.0
85 0.0 885.0
86 0.0 591.0
87 0.0 215.0
88 0.0 18.0
89 0.0 138.0
90 0.0 385.0
91 0.0 565.0
92 0.0 824.0
93 0.0 898.0
94 0.0 826.0
95 0.0 997.0
96 0.0 846.0
97 0.0 278.0
98 0.0 822.0
99 0.0 195.0
100 0.0 927.0
